data/solutions/recovery/degenerate/intermediate/binding/degenerate_intermediate_instance38/4.sol
Elapsed time: 0.26
Upper bound: 301179.0
Planning weighted value: 15433892454.0
C[0]=301179.0
C[1]=301092.0
C[2]=300338.0
C[3]=298647.0
C[4]=297494.0
C[5]=295101.0
C[6]=291673.0
C[7]=288112.0
C[8]=286221.0
C[9]=284523.0
C[10]=283517.0
C[11]=279245.0
C[12]=277276.0
C[13]=0.0
C[14]=0.0
C[15]=0.0
y[0]=2
y[1]=5
y[2]=9
y[3]=10
y[4]=11
y[5]=8
y[6]=5
y[7]=8
y[8]=6
y[9]=4
y[10]=10
y[11]=7
y[12]=11
y[13]=11
y[14]=12
y[15]=10
y[16]=9
y[17]=8
y[18]=3
y[19]=6
y[20]=1
y[21]=2
y[22]=1
y[23]=10
y[24]=4
y[25]=7
y[26]=3
y[27]=1
y[28]=4
y[29]=2
y[30]=12
y[31]=9
y[32]=11
y[33]=2
y[34]=0
y[35]=0
y[36]=10
y[37]=0
y[38]=12
y[39]=0
y[40]=9
y[41]=1
y[42]=12
y[43]=7
y[44]=1
y[45]=5
y[46]=5
y[47]=3
y[48]=11
y[49]=4
y[50]=6
y[51]=7
y[52]=0
y[53]=4
y[54]=5
y[55]=2
y[56]=11
y[57]=6
y[58]=12
y[59]=4
y[60]=4
y[61]=8
y[62]=10
y[63]=6
y[64]=4
y[65]=3
